Traveling Salesman Problem/TSP_generados/Aleatorio1620390970_11.tsp
NAME: Aleatorio1620390970_11.tsp
COMMENT: Randomly generated scenario
TYPE: TSP
DIMENSION: 11
EDGE_WEIGHT_TYPE: ATT
NODE_COORD_SECTION
1 38.12 27.55
2 8.08 30.05
3 45.62 47.48
4 37.4 41.19
5 1.65 11.63
6 3.23 30.47
7 25.17 35.87
8 43.03 9.03
9 16.69 38.47
10 35.94 25.64
11 47.03 34.43
