Traveling Salesman Problem/TSP_generados/Aleatorio1620390970_11.opt.tour
NAME: Aleatorio1620390970_11.opt.tour
COMMENT: Optimal solution for Aleatorio1620390970_11 (155.1771019203027)
TYPE: TOUR
DIMENSION: 11
TOUR_SECTION
1 11 3 4 7 9 2 6 5 8 10
-1
EOF
